<number of tasks>
50

<cycle time>
1000

<order strength>
0.896


<task times>
1 43
2 24
3 176
4 107
5 99
6 150
7 508
8 234
9 40
10 144
11 136
12 261
13 78
14 112
15 157
16 564
17 121
18 218
19 123
20 104
21 85
22 358
23 128
24 236
25 120
26 74
27 106
28 137
29 283
30 130
31 125
32 151
33 34
34 118
35 297
36 111
37 194
38 438
39 81
40 354
41 461
42 264
43 210
44 477
45 197
46 152
47 51
48 191
49 154
50 237

<precedence relations>
1,3
1,4
1,5
2,3
2,4
2,5
3,6
3,7
3,8
4,6
4,7
4,8
5,6
5,7
5,8
6,9
6,10
6,11
6,12
6,13
7,9
7,10
7,11
7,12
7,13
8,9
8,10
8,11
8,12
8,13
9,14
9,15
9,16
10,14
10,15
10,16
11,14
11,15
11,16
12,14
12,15
12,16
13,14
13,15
13,16
14,17
14,18
15,17
15,18
16,17
16,18
17,19
18,19
19,20
19,21
20,22
20,23
20,24
21,22
21,23
21,24
22,25
22,26
22,27
22,28
23,25
23,26
23,27
23,28
24,25
24,34
25,33
26,29
26,31
27,32
27,45
28,29
28,30
29,33
29,37
30,32
30,33
31,35
32,34
33,35
34,36
34,37
35,36
35,38
36,39
36,40
36,41
38,39
38,42
39,44
40,46
41,43
41,49
41,50
42,43
42,44
42,45
44,47
45,47
46,47
47,48
47,49
47,50

<end>
